(declare-fun temp683_1 () (_ BitVec 64))
(declare-fun var461925 () (_ BitVec 64))
(declare-fun temp683_2 () (_ BitVec 64))
(declare-fun var724069 () (_ BitVec 64))
(declare-fun temp683_3 () (_ BitVec 64))
(declare-fun temp683_4 () (_ BitVec 64))
(declare-fun var69380 () (_ BitVec 64))
(declare-fun k!0 () Bool)
(declare-fun ARGNAME_rtol_NAMEEND () (_ BitVec 64))
(declare-fun temp683_5 () (_ BitVec 64))
(declare-fun ARGNAME_atol_NAMEEND () (_ BitVec 64))
(declare-fun var69401 () (_ BitVec 64))
(declare-fun temp683_6 () (_ BitVec 64))
(declare-fun temp683_7 () (_ BitVec 64))
(declare-fun temp683_8 () (_ BitVec 64))
(declare-fun ARGNAME_input_NAMEEND_DIMSIZE
             ()
             (Array (_ BitVec 64) (_ BitVec 64)))
(declare-fun temp683_9 () (_ BitVec 64))
(declare-fun temp683_10 () (_ BitVec 64))
(declare-fun temp683_11 () (_ BitVec 64))
(declare-fun temp683_12 () (_ BitVec 64))
(declare-fun temp683_13 () (_ BitVec 64))
(declare-fun temp683_14 () (_ BitVec 64))
(declare-fun temp683_15 () (_ BitVec 64))
(declare-fun temp683_16 () (_ BitVec 64))
(declare-fun temp683_17 () (_ BitVec 64))
(declare-fun temp683_18 () (_ BitVec 64))
(declare-fun temp683_19 () (_ BitVec 64))
(declare-fun temp683_20 () (_ BitVec 64))
(declare-fun temp683_21 () (_ BitVec 64))
(declare-fun temp683_22 () (_ BitVec 64))
(declare-fun temp683_23 () (_ BitVec 64))
(declare-fun temp683_24 () (_ BitVec 64))
(declare-fun temp683_25 () (_ BitVec 64))
(declare-fun temp683_26 () (_ BitVec 64))
(declare-fun ARGNAME_other_NAMEEND_DIMSIZE
             ()
             (Array (_ BitVec 64) (_ BitVec 64)))
(declare-fun temp683_27 () (_ BitVec 64))
(declare-fun temp683_28 () (_ BitVec 64))
(declare-fun temp683_29 () (_ BitVec 64))
(declare-fun temp683_30 () (_ BitVec 64))
(declare-fun temp683_31 () (_ BitVec 64))
(declare-fun temp683_32 () (_ BitVec 64))
(declare-fun temp683_33 () (_ BitVec 64))
(declare-fun temp683_34 () (_ BitVec 64))
(declare-fun temp683_35 () (_ BitVec 64))
(declare-fun temp683_36 () (_ BitVec 64))
(declare-fun temp683_37 () (_ BitVec 64))
(declare-fun temp683_38 () (_ BitVec 64))
(declare-fun temp683_39 () (_ BitVec 64))
(declare-fun temp683_40 () (_ BitVec 64))
(declare-fun temp683_41 () (_ BitVec 64))
(declare-fun temp683_42 () (_ BitVec 64))
(declare-fun temp683_43 () (_ BitVec 64))
(declare-fun temp683_44 () (_ BitVec 64))
(declare-fun temp683_45 () (_ BitVec 64))
(declare-fun temp683_46 () (_ BitVec 64))
(declare-fun temp683_47 () (_ BitVec 64))
(declare-fun temp683_48 () (_ BitVec 64))
(declare-fun temp683_49 () (_ BitVec 64))
(declare-fun temp683_50 () (_ BitVec 64))
(declare-fun temp683_51 () (_ BitVec 64))
(declare-fun temp683_52 () (_ BitVec 64))
(declare-fun temp683_53 () (_ BitVec 64))
(declare-fun temp683_54 () (_ BitVec 64))
(declare-fun temp683_55 () (_ BitVec 64))
(declare-fun temp683_56 () (_ BitVec 64))
(declare-fun temp683_57 () (_ BitVec 64))
(declare-fun temp683_58 () (_ BitVec 64))
(declare-fun temp683_59 () (_ BitVec 64))
(declare-fun temp683_60 () (_ BitVec 64))
(declare-fun temp683_61 () (_ BitVec 64))
(declare-fun temp683_62 () (_ BitVec 64))
(declare-fun temp683_63 () (_ BitVec 64))
(declare-fun temp683_64 () (_ BitVec 64))
(declare-fun temp683_65 () (_ BitVec 64))
(declare-fun temp683_66 () (_ BitVec 64))
(declare-fun temp683_67 () (_ BitVec 64))
(declare-fun temp683_68 () (_ BitVec 64))
(declare-fun temp683_69 () (_ BitVec 64))
(declare-fun temp683_70 () (_ BitVec 64))
(declare-fun temp683_71 () (_ BitVec 64))
(declare-fun temp683_72 () (_ BitVec 64))
(declare-fun temp683_73 () (_ BitVec 64))
(declare-fun temp683_74 () (_ BitVec 64))
(declare-fun temp683_75 () (_ BitVec 64))
(declare-fun temp683_76 () (_ BitVec 64))
(declare-fun temp683_77 () (_ BitVec 64))
(declare-fun temp683_78 () (_ BitVec 64))
(declare-fun ARGNAME_other_NAMEEND_DIM () (_ BitVec 64))
(declare-fun temp683_79 () (_ BitVec 64))
(declare-fun ARGNAME_equal_nan_NAMEEND () (_ BitVec 64))
(declare-fun temp683_80 () (_ BitVec 64))
(declare-fun var1184010 () (_ BitVec 64))
(declare-fun var1183975 () (_ BitVec 64))
(declare-fun var69428 () (_ BitVec 64))
(declare-fun temp683_81 () (_ BitVec 64))
(declare-fun temp683_82 () (_ BitVec 64))
(declare-fun var69543 () (_ BitVec 64))
(declare-fun temp683_83 () (_ BitVec 64))
(declare-fun var69545 () (_ BitVec 64))
(declare-fun var69546 () (_ BitVec 64))
(declare-fun temp683_84 () (_ BitVec 64))
(declare-fun temp683_85 () (_ BitVec 64))
(declare-fun var2167086 () (_ BitVec 64))
(declare-fun temp683_86 () (_ BitVec 64))
(declare-fun var2167087 () (_ BitVec 64))
(declare-fun var2491518 () (_ BitVec 64))
(declare-fun var2491519 () (_ BitVec 64))
(declare-fun temp683_87 () (_ BitVec 64))
(declare-fun var3019162 () (_ BitVec 64))
(declare-fun temp683_88 () (_ BitVec 64))
(declare-fun var3543450 () (_ BitVec 64))
(declare-fun temp683_89 () (_ BitVec 64))
(declare-fun var4068259 () (_ BitVec 64))
(declare-fun temp683_91 () (_ BitVec 64))
(declare-fun temp683_90 () (_ BitVec 64))
(assert (= temp683_1 #x0000000000080000))
(assert (= var461925 temp683_1))
(assert (= temp683_2 #x0000000000080000))
(assert (= var724069 temp683_2))
(assert (= temp683_3 #x0000000000000000))
(assert (= var69380
   (ite (bvslt ARGNAME_rtol_NAMEEND temp683_3)
        #x0000000000000001
        #x0000000000000000)))
(assert (= temp683_4 #x0000000000000000))
(assert (= var69380 temp683_4))
(assert (= temp683_5 #x0000000000000000))
(assert (= var69401
   (ite (bvslt ARGNAME_atol_NAMEEND temp683_5)
        #x0000000000000001
        #x0000000000000000)))
(assert (= temp683_6 #x0000000000000000))
(assert (= var69401 temp683_6))
(assert (= temp683_7 #x0000000000000000))
(assert (= temp683_8 temp683_7))
(assert (= temp683_9 (select ARGNAME_input_NAMEEND_DIMSIZE temp683_8)))
(assert (= temp683_10 #x0000000000000001))
(assert (= temp683_11 temp683_10))
(assert (= temp683_12 (select ARGNAME_input_NAMEEND_DIMSIZE temp683_11)))
(assert (= temp683_13 #x0000000000000002))
(assert (= temp683_14 temp683_13))
(assert (= temp683_15 (select ARGNAME_input_NAMEEND_DIMSIZE temp683_14)))
(assert (= temp683_16 #x0000000000000003))
(assert (= temp683_17 temp683_16))
(assert (= temp683_18 (select ARGNAME_input_NAMEEND_DIMSIZE temp683_17)))
(assert (= temp683_19 #x0000000000000004))
(assert (= temp683_20 temp683_19))
(assert (= temp683_21 (select ARGNAME_input_NAMEEND_DIMSIZE temp683_20)))
(assert (= temp683_22 #x0000000000000005))
(assert (= temp683_23 temp683_22))
(assert (= temp683_24 (select ARGNAME_input_NAMEEND_DIMSIZE temp683_23)))
(assert (= temp683_25 #x0000000000000000))
(assert (= temp683_26 temp683_25))
(assert (= temp683_27 (select ARGNAME_other_NAMEEND_DIMSIZE temp683_26)))
(assert (= temp683_28 #x0000000000000001))
(assert (= temp683_29 temp683_28))
(assert (= temp683_30 (select ARGNAME_other_NAMEEND_DIMSIZE temp683_29)))
(assert (= temp683_31 #x0000000000000002))
(assert (= temp683_32 temp683_31))
(assert (= temp683_33 (select ARGNAME_other_NAMEEND_DIMSIZE temp683_32)))
(assert (= temp683_34 #x0000000000000003))
(assert (= temp683_35 temp683_34))
(assert (= temp683_36 (select ARGNAME_other_NAMEEND_DIMSIZE temp683_35)))
(assert (= temp683_37 #x0000000000000004))
(assert (= temp683_38 temp683_37))
(assert (= temp683_39 (select ARGNAME_other_NAMEEND_DIMSIZE temp683_38)))
(assert (= temp683_40 #x0000000000000005))
(assert (= temp683_41 temp683_40))
(assert (= temp683_42 (select ARGNAME_other_NAMEEND_DIMSIZE temp683_41)))
(assert (= temp683_43 temp683_11))
(assert (= temp683_44 (select ARGNAME_other_NAMEEND_DIMSIZE temp683_43)))
(assert (= temp683_45 temp683_14))
(assert (= temp683_46 (select ARGNAME_other_NAMEEND_DIMSIZE temp683_45)))
(assert (= temp683_47 temp683_17))
(assert (= temp683_48 (select ARGNAME_other_NAMEEND_DIMSIZE temp683_47)))
(assert (= temp683_49 temp683_20))
(assert (= temp683_50 (select ARGNAME_other_NAMEEND_DIMSIZE temp683_49)))
(assert (= temp683_51 temp683_23))
(assert (= temp683_52 (select ARGNAME_other_NAMEEND_DIMSIZE temp683_51)))
(assert (= temp683_53 temp683_8))
(assert (= temp683_54 (select ARGNAME_other_NAMEEND_DIMSIZE temp683_53)))
(assert (= temp683_55 temp683_26))
(assert (= temp683_56 (select ARGNAME_input_NAMEEND_DIMSIZE temp683_55)))
(assert (= temp683_57 temp683_29))
(assert (= temp683_58 (select ARGNAME_input_NAMEEND_DIMSIZE temp683_57)))
(assert (= temp683_59 temp683_32))
(assert (= temp683_60 (select ARGNAME_input_NAMEEND_DIMSIZE temp683_59)))
(assert (= temp683_61 temp683_35))
(assert (= temp683_62 (select ARGNAME_input_NAMEEND_DIMSIZE temp683_61)))
(assert (= temp683_63 temp683_38))
(assert (= temp683_64 (select ARGNAME_input_NAMEEND_DIMSIZE temp683_63)))
(assert (= temp683_65 temp683_41))
(assert (= temp683_66 (select ARGNAME_input_NAMEEND_DIMSIZE temp683_65)))
(assert (= temp683_67 temp683_43))
(assert (= temp683_68 (select ARGNAME_input_NAMEEND_DIMSIZE temp683_67)))
(assert (= temp683_69 temp683_45))
(assert (= temp683_70 (select ARGNAME_input_NAMEEND_DIMSIZE temp683_69)))
(assert (= temp683_71 temp683_47))
(assert (= temp683_72 (select ARGNAME_input_NAMEEND_DIMSIZE temp683_71)))
(assert (= temp683_73 temp683_49))
(assert (= temp683_74 (select ARGNAME_input_NAMEEND_DIMSIZE temp683_73)))
(assert (= temp683_75 temp683_51))
(assert (= temp683_76 (select ARGNAME_input_NAMEEND_DIMSIZE temp683_75)))
(assert (= temp683_77 temp683_53))
(assert (= temp683_78 (select ARGNAME_input_NAMEEND_DIMSIZE temp683_77)))
(assert (= (and true
        (= temp683_44 temp683_12)
        (= temp683_46 temp683_15)
        (= temp683_48 temp683_18)
        (= temp683_50 temp683_21)
        (= temp683_52 temp683_24)
        (= temp683_54 temp683_9)
        (= temp683_56 temp683_27)
        (= temp683_58 temp683_30)
        (= temp683_60 temp683_33)
        (= temp683_62 temp683_36)
        (= temp683_64 temp683_39)
        (= temp683_66 temp683_42)
        (= temp683_68 temp683_44)
        (= temp683_70 temp683_46)
        (= temp683_72 temp683_48)
        (= temp683_74 temp683_50)
        (= temp683_76 temp683_52)
        (= temp683_78 temp683_54))
   true))
(assert (= ARGNAME_other_NAMEEND_DIM ARGNAME_other_NAMEEND_DIM))
(assert (= temp683_79 #x0000000000000001))
(assert (= ARGNAME_equal_nan_NAMEEND temp683_79))
(assert (= temp683_80 #x0000000000000001))
(assert (= var1184010 temp683_80))
(assert (= var1183975 var1184010))
(assert (= var69428 var1183975))
(assert (= temp683_81 #x0000000000000001))
(assert (= var69428 temp683_81))
(assert (= temp683_82 #x0000000000000000))
(assert (= var69543
   (ite (= ARGNAME_rtol_NAMEEND temp683_82)
        #x0000000000000001
        #x0000000000000000)))
(assert (= temp683_83 #x0000000000000000))
(assert (= var69545
   (ite (= ARGNAME_atol_NAMEEND temp683_83)
        #x0000000000000001
        #x0000000000000000)))
(assert (= var69546 (bvand var69543 var69545)))
(assert (= temp683_84 #x0000000000000000))
(assert (= var69546 temp683_84))
(assert (= temp683_85 #x0000000000000000))
(assert (= var2167086 temp683_85))
(assert (= temp683_86 #x0000000000000000))
(assert (= var2167087 temp683_86))
(assert (= var2491518 var2167086))
(assert (= var2491519 var2167087))
(assert (= temp683_87 #x0000000000000001))
(assert (= var3019162 temp683_87))
(assert (= temp683_88 #x0000000000000001))
(assert (= var3543450 temp683_88))
(assert (= temp683_89 #x000000000000000b))
(assert (= var4068259 temp683_89))
(assert (= temp683_91 #x0000000000000001))
(assert (= temp683_90 temp683_91))
(model-add temp683_1 () (_ BitVec 64) #x0000000000080000)
(model-add var461925 () (_ BitVec 64) #x0000000000080000)
(model-add temp683_2 () (_ BitVec 64) #x0000000000080000)
(model-add var724069 () (_ BitVec 64) #x0000000000080000)
(model-add temp683_3 () (_ BitVec 64) #x0000000000000000)
(model-add temp683_4 () (_ BitVec 64) #x0000000000000000)
(model-add var69380 () (_ BitVec 64) #x0000000000000000)
(model-del k!0)
(model-add ARGNAME_rtol_NAMEEND
           ()
           (_ BitVec 64)
           (ite (or k!0 (= #x0000000000000000 #x8000000000000000))
                #x0000000000000000
                (bvsub #x0000000000000000 #x0000000000000001)))






